(declare-fun temp922_1 () (_ BitVec 64))
(declare-fun var135910 () (_ BitVec 64))
(declare-fun temp922_2 () (_ BitVec 64))
(declare-fun var394978 () (_ BitVec 64))
(declare-fun var1248559 () (_ BitVec 64))
(declare-fun temp922_3 () (_ BitVec 64))
(declare-fun var1380003 () (_ BitVec 64))
(declare-fun temp922_4 () (_ BitVec 64))
(declare-fun var3222842 () (_ BitVec 64))
(declare-fun var3483705 () (_ BitVec 64))
(declare-fun var3745948 () (_ BitVec 64))
(declare-fun var3877089 () (_ BitVec 64))
(assert (= temp922_1 #x0000000000000001))
(assert (= var135910 temp922_1))
(assert (= temp922_2 #x0000000000000000))
(assert (= var394978 temp922_2))
(assert (= var1248559 var394978))
(assert (= temp922_3 #x0000000000000005))
(assert (= var1380003 temp922_3))
(assert (= temp922_4 #x0000000000000000))
(assert (= var3222842 temp922_4))
(assert (= var3483705 var3222842))
(assert (= var3745948 var3483705))
(assert (= var3877089 var3745948))
(model-add temp922_1 () (_ BitVec 64) #x0000000000000001)
(model-add var135910 () (_ BitVec 64) #x0000000000000001)
(model-add temp922_2 () (_ BitVec 64) #x0000000000000000)
(model-add var394978 () (_ BitVec 64) #x0000000000000000)
(model-add var1248559 () (_ BitVec 64) #x0000000000000000)
(model-add temp922_3 () (_ BitVec 64) #x0000000000000005)
(model-add var1380003 () (_ BitVec 64) #x0000000000000005)
(model-add temp922_4 () (_ BitVec 64) #x0000000000000000)
(model-add var3222842 () (_ BitVec 64) #x0000000000000000)
(model-add var3483705 () (_ BitVec 64) #x0000000000000000)
(model-add var3745948 () (_ BitVec 64) #x0000000000000000)
(model-add var3877089 () (_ BitVec 64) #x0000000000000000)




